instances/knapsack/discrete/knapsack_150_4.lp
\ Model knapsack_150_4
\ LP format - for model browsing. Use MPS format to capture full model detail.
\ Signature: 0x1d3d114bfbe69093
Minimize
  - 25 x[0] - 73 x[1] - 99 x[2] - 39 x[3] - 20 x[4] - 48 x[5] - 44 x[6]
   - 66 x[7] - 97 x[8] - 85 x[9] - 6 x[10] - 94 x[11] - 6 x[12] - 57 x[13]
   - 70 x[14] - 19 x[15] - 77 x[16] - 69 x[17] - 57 x[18] - 100 x[19]
   - 12 x[20] - 94 x[21] - 59 x[22] - 11 x[23] - 72 x[24] - 37 x[25]
   - 95 x[26] - 46 x[27] - x[28] - 51 x[29] - 8 x[30] - 47 x[31] - 67 x[32]
   - 90 x[33] - 26 x[34] - 32 x[35] - 76 x[36] - 82 x[37] - 33 x[38]
   - 50 x[39] - 79 x[40] - 64 x[41] - 20 x[42] - 34 x[43] - 89 x[44]
   - 34 x[45] - 79 x[46] - 79 x[47] - 63 x[48] - 44 x[49] - 34 x[50]
   - 73 x[51] - 38 x[52] - 84 x[53] - 51 x[54] - 61 x[55] - 25 x[56]
   - 51 x[57] - 27 x[58] - 78 x[59] - 99 x[60] - 65 x[61] - 16 x[62]
   - 72 x[63] - 77 x[64] - 60 x[65] - 76 x[66] - 20 x[67] - 55 x[68]
   - 24 x[69] - 20 x[70] - 50 x[71] - 52 x[72] - 36 x[73] - 21 x[74]
   - 53 x[75] - 85 x[76] - 64 x[77] - 63 x[78] - 90 x[79] - 22 x[80]
   - 73 x[81] - 52 x[82] - 57 x[83] - 72 x[84] - 71 x[85] - 77 x[86]
   - 98 x[87] - 27 x[88] - 97 x[89] - 69 x[90] - 72 x[91] - 20 x[92]
   - 71 x[93] - 39 x[94] - 25 x[95] - 16 x[96] - 59 x[97] - 27 x[98]
   - 99 x[99] - 99 x[100] - 4 x[101] - 29 x[102] - 68 x[103] - 42 x[104]
   - 42 x[105] - 61 x[106] - 95 x[107] - x[108] - 79 x[109] - 88 x[110]
   - 33 x[111] - 16 x[112] - 50 x[113] - 29 x[114] - 96 x[115] - 34 x[116]
   - 76 x[117] - 25 x[118] - 14 x[119] - 80 x[120] - 65 x[121] - 13 x[122]
   - 2 x[123] - 66 x[124] - 95 x[125] - 31 x[126] - 69 x[127] - 94 x[128]
   - 3 x[129] - 41 x[130] - 2 x[131] - 31 x[132] - 93 x[133] - 40 x[134]
   - 6 x[135] - 43 x[136] - 80 x[137] - 10 x[138] - 56 x[139] - 73 x[140]
   - 99 x[141] - 8 x[142] - 66 x[143] - 51 x[144] - 53 x[145] - 8 x[146]
   - 74 x[147] - 3 x[148] - 69 x[149]
Subject To
 primal_upper: 48 x[0] + 5 x[1] + 91 x[2] + 68 x[3] + 81 x[4] + 54 x[5]
   + 58 x[6] + 24 x[7] + 18 x[8] + 19 x[9] + 100 x[10] + 96 x[11]
   + 53 x[12] + 69 x[13] + 37 x[14] + 21 x[15] + 14 x[16] + 97 x[17]
   + 74 x[18] + 3 x[19] + 2 x[20] + 24 x[21] + 49 x[22] + 91 x[23]
   + 33 x[24] + 53 x[25] + 71 x[26] + 12 x[27] + 42 x[28] + 36 x[29]
   + 46 x[30] + 44 x[31] + 84 x[32] + 6 x[33] + 21 x[34] + 58 x[35] + x[36]
   + 21 x[37] + 9 x[38] + 95 x[39] + 88 x[40] + 46 x[41] + 23 x[42]
   + 46 x[43] + 24 x[44] + 19 x[45] + 78 x[46] + 70 x[47] + 60 x[48]
   + 89 x[49] + 71 x[50] + 49 x[51] + 26 x[52] + 5 x[53] + 61 x[54]
   + 72 x[55] + 30 x[56] + 3 x[57] + 81 x[58] + 3 x[59] + 69 x[60]
   + 47 x[61] + 52 x[62] + 99 x[63] + 92 x[64] + 77 x[65] + 41 x[66]
   + 91 x[67] + 5 x[68] + 54 x[69] + 42 x[70] + 18 x[71] + 35 x[72]
   + 76 x[73] + 64 x[74] + 89 x[75] + 43 x[76] + 12 x[77] + 81 x[78]
   + 23 x[79] + 50 x[80] + 34 x[81] + 55 x[82] + 46 x[83] + 54 x[84]
   + 82 x[85] + 88 x[86] + 33 x[87] + 67 x[88] + 68 x[89] + 37 x[90]
   + 29 x[91] + 21 x[92] + 64 x[93] + 61 x[94] + 38 x[95] + 54 x[96]
   + 53 x[97] + 5 x[98] + 25 x[99] + 26 x[100] + 17 x[101] + 31 x[102]
   + 21 x[103] + 94 x[104] + 47 x[105] + 88 x[106] + 79 x[107] + 87 x[108]
   + 6 x[109] + 55 x[110] + 12 x[111] + 82 x[112] + 10 x[113] + 78 x[114]
   + 19 x[115] + 76 x[116] + 70 x[117] + 82 x[118] + 21 x[119] + 28 x[120]
   + 77 x[121] + 8 x[122] + 27 x[123] + 26 x[124] + 79 x[125] + 4 x[126]
   + 44 x[127] + 31 x[128] + 12 x[129] + 18 x[130] + 50 x[131] + 99 x[132]
   + 65 x[133] + 21 x[134] + 11 x[135] + 38 x[136] + 83 x[137] + 2 x[138]
   + x[139] + 28 x[140] + 89 x[141] + 32 x[142] + 12 x[143] + 62 x[144]
   + 19 x[145] + 83 x[146] + 16 x[147] + 13 x[148] + 11 x[149] + 4.8 r[0]
   + 0.5 r[1] + 9.1 r[2] + 6.8 r[3] + 8.1 r[4] + 5.4 r[5] + 5.8 r[6]
   + 2.4 r[7] + 1.8 r[8] + 1.9 r[9] + 10 r[10] + 9.6 r[11] + 5.3 r[12]
   + 6.9 r[13] + 3.7 r[14] + 2.1 r[15] + 1.4 r[16] + 9.7 r[17] + 7.4 r[18]
   + 0.3 r[19] + 0.2 r[20] + 2.4 r[21] + 4.9 r[22] + 9.1 r[23] + 3.3 r[24]
   + 5.3 r[25] + 7.1 r[26] + 1.2 r[27] + 4.2 r[28] + 3.6 r[29] + 4.6 r[30]
   + 4.4 r[31] + 8.4 r[32] + 0.6 r[33] + 2.1 r[34] + 5.8 r[35] + 0.1 r[36]
   + 2.1 r[37] + 0.9 r[38] + 9.5 r[39] + 8.8 r[40] + 4.6 r[41] + 2.3 r[42]
   + 4.6 r[43] + 2.4 r[44] + 1.9 r[45] + 7.8 r[46] + 7 r[47] + 6 r[48]
   + 8.9 r[49] + 7.1 r[50] + 4.9 r[51] + 2.6 r[52] + 0.5 r[53] + 6.1 r[54]
   + 7.2 r[55] + 3 r[56] + 0.3 r[57] + 8.1 r[58] + 0.3 r[59] + 6.9 r[60]
   + 4.7 r[61] + 5.2 r[62] + 9.9 r[63] + 9.2 r[64] + 7.7 r[65] + 4.1 r[66]
   + 9.1 r[67] + 0.5 r[68] + 5.4 r[69] + 4.2 r[70] + 1.8 r[71] + 3.5 r[72]
   + 7.6 r[73] + 6.4 r[74] + 8.9 r[75] + 4.3 r[76] + 1.2 r[77] + 8.1 r[78]
   + 2.3 r[79] + 5 r[80] + 3.4 r[81] + 5.5 r[82] + 4.6 r[83] + 5.4 r[84]
   + 8.2 r[85] + 8.8 r[86] + 3.3 r[87] + 6.7 r[88] + 6.8 r[89] + 3.7 r[90]
   + 2.9 r[91] + 2.1 r[92] + 6.4 r[93] + 6.1 r[94] + 3.8 r[95] + 5.4 r[96]
   + 5.3 r[97] + 0.5 r[98] + 2.5 r[99] + 2.6 r[100] + 1.7 r[101]
   + 3.1 r[102] + 2.1 r[103] + 9.4 r[104] + 4.7 r[105] + 8.8 r[106]
   + 7.9 r[107] + 8.7 r[108] + 0.6 r[109] + 5.5 r[110] + 1.2 r[111]
   + 8.2 r[112] + r[113] + 7.8 r[114] + 1.9 r[115] + 7.6 r[116] + 7 r[117]
   + 8.2 r[118] + 2.1 r[119] + 2.8 r[120] + 7.7 r[121] + 0.8 r[122]
   + 2.7 r[123] + 2.6 r[124] + 7.9 r[125] + 0.4 r[126] + 4.4 r[127]
   + 3.1 r[128] + 1.2 r[129] + 1.8 r[130] + 5 r[131] + 9.9 r[132]
   + 6.5 r[133] + 2.1 r[134] + 1.1 r[135] + 3.8 r[136] + 8.3 r[137]
   + 0.2 r[138] + 0.1 r[139] + 2.8 r[140] + 8.9 r[141] + 3.2 r[142]
   + 1.2 r[143] + 6.2 r[144] + 1.9 r[145] + 8.3 r[146] + 1.6 r[147]
   + 1.3 r[148] + 1.1 r[149] <= 660
 primal_lower: 0.8989245429430146 x[0] + 0.2670129588121559 x[1]
   + 2.568016747584029 x[2] + 4.134782372901378 x[3]
   + 3.113688413127179 x[4] + 3.926758957087501 x[5]
   + 1.268555575684406 x[6] + 2.484874980982775 x[7]
   + 3.323189481879235 x[8] + 1.553828469171957 x[9]
   + 0.9608003007179066 x[10] + 2.170521378727085 x[11]
   + 0.3402569818673145 x[12] + 3.113724696558136 x[13]
   + 0.8518584840719864 x[14] + 2.018981074939791 x[15]
   + 1.358667787232109 x[16] + 3.399552144024371 x[17]
   + 2.674352072391973 x[18] + 1.874200599902382 x[19]
   + 1.934578825679557 x[20] + 3.596213589271578 x[21]
   + 1.693793847481957 x[22] + 0.9092762873269994 x[23]
   + 3.983350088137352 x[24] + 4.059194493762698 x[25]
   + 3.251563466932256 x[26] + 0.7916645753359578 x[27]
   + 2.284059136198452 x[28] + 0.2511338508625228 x[29]
   + 0.8336498893803632 x[30] + 0.1388918923416169 x[31]
   + 3.683873279295338 x[32] + 3.792967056010728 x[33]
   + 4.103688525089331 x[34] + 0.3608854334606311 x[35]
   + 4.300844627364839 x[36] + 0.6586705414829309 x[37]
   + 3.551383320032576 x[38] + 2.899841867929239 x[39]
   + 0.7395113080531391 x[40] + 0.7904037613049624 x[41]
   + 1.304772798975762 x[42] + 1.630193867173823 x[43]
   + 2.470661023949346 x[44] + 1.364910121120291 x[45]
   + 2.641989543024218 x[46] + 4.329098818868335 x[47]
   + 2.450353265630623 x[48] + 3.176894621753588 x[49]
   + 1.018968241804433 x[50] + 2.239162106588556 x[51]
   + 0.7757692196479555 x[52] + 2.272492632762917 x[53]
   + 1.661068077026602 x[54] + 2.124454612536493 x[55]
   + 1.539450259483374 x[56] + 0.0243535785972632 x[57]
   + 1.007285212041437 x[58] + 2.788475999504858 x[59]
   + 1.620974155897365 x[60] + 1.252449433870589 x[61]
   + 0.6358178486929772 x[62] + 1.248124960407097 x[63]
   + 3.897130380620903 x[64] + 2.213391204211819 x[65]
   + 2.939249748106608 x[66] + 2.24992755635703 x[67]
   + 4.088509736634578 x[68] + 0.1226781656638575 x[69]
   + 0.8339788175925884 x[70] + 1.876346743466328 x[71]
   + 4.033373707110462 x[72] + 1.959833757087008 x[73]
   + 3.445969224068608 x[74] + 1.153808933864526 x[75]
   + 2.231538112711877 x[76] + 2.518622839644902 x[77]
   + 3.52417438296263 x[78] + 1.903812441893167 x[79]
   + 3.845949098658192 x[80] + 1.43442690861737 x[81]
   + 4.095316469319915 x[82] + 2.757342220724453 x[83]
   + 1.941392982332132 x[84] + 0.8394053917376533 x[85]
   + 1.586344766136836 x[86] + 3.955025910239636 x[87]
   + 0.5537022396288503 x[88] + 1.51000749364645 x[89]
   + 4.258341190966482 x[90] + 4.427138458430112 x[91]
   + 3.20399688668513 x[92] + 1.084413054316656 x[93]
   + 1.80325463930813 x[94] + 1.067090980199107 x[95]
   + 1.865036733379813 x[96] + 0.723405678877831 x[97]
   + 3.712202170979181 x[98] + 3.905227488656134 x[99]
   + 2.139910354793512 x[100] + 2.091543781335854 x[101]
   + 2.150657208378034 x[102] + 2.387110719281989 x[103]
   + 3.010400439791448 x[104] + 1.774697765592496 x[105]
   + 0.8079189686066519 x[106] + 0.725485198661626 x[107]
   + 3.905621099731527 x[108] + 2.881565894923576 x[109]
   + 3.419740113181001 x[110] + 3.229878254173161 x[111]
   + 1.850823880858492 x[112] + 3.673484134165237 x[113]
   + 0.9360178360982153 x[114] + 3.449098115098711 x[115]
   + 3.624825231762076 x[116] + 0.9138719044167999 x[117]
   + 3.866640134241854 x[118] + 3.061682282013089 x[119]
   + 0.4720097233891652 x[120] + 3.925824463165455 x[121]
   + 4.144471553628134 x[122] + 1.936402515330581 x[123]
   + 0.0622534486482816 x[124] + 3.527215667225656 x[125]
   + 0.1299546012844002 x[126] + 0.1675072571918101 x[127]
   + 1.563640441071784 x[128] + 1.093999225807964 x[129]
   + 3.160551243757843 x[130] + 4.121647140983606 x[131]
   + 2.783432828607003 x[132] + 4.300021448439504 x[133]
   + 1.16054217877039 x[134] + 1.525772479759656 x[135]
   + 3.36517703265069 x[136] + 2.010212613018993 x[137]
   + 1.891379779962312 x[138] + 4.423929812533178 x[139]
   + 2.799940490786437 x[140] + 0.5365225084213443 x[141]
   + 1.97767377876121 x[142] + 2.463183870320182 x[143]
   + 1.362142756713575 x[144] + 2.308281617457748 x[145]
   + 0.0828975463417741 x[146] + 3.878774297041665 x[147]
   + 3.677012391265441 x[148] + 0.4419189979935122 x[149] + 48 u[0]
   + 44 u[1] + 42 u[2] + 95 u[3] + 36 u[4] + 58 u[5] + 17 u[6] + 68 u[7]
   + 41 u[8] + 50 u[9] + 12 u[10] + 47 u[11] + 40 u[12] + 16 u[13]
   + 5 u[14] + 25 u[15] + 45 u[16] + 96 u[17] + 69 u[18] + 50 u[19]
   + 97 u[20] + 28 u[21] + 40 u[22] + 87 u[23] + 41 u[24] + 72 u[25]
   + 54 u[26] + 96 u[27] + 42 u[28] + 35 u[29] + 58 u[30] + 36 u[31]
   + 44 u[32] + 49 u[33] + 48 u[34] + 41 u[35] + 72 u[36] + 53 u[37]
   + 16 u[38] + 27 u[39] + 99 u[40] + 66 u[41] + 22 u[42] + 50 u[43]
   + 95 u[44] + 15 u[45] + 86 u[46] + 98 u[47] + 31 u[48] + 52 u[49]
   + 27 u[50] + 8 u[51] + 49 u[52] + 72 u[53] + 17 u[54] + 80 u[55]
   + 17 u[56] + 35 u[57] + 8 u[58] + 74 u[59] + 57 u[60] + 95 u[61]
   + 64 u[62] + 27 u[63] + 96 u[64] + 4 u[65] + 53 u[66] + 3 u[67]
   + 44 u[68] + 30 u[69] + 30 u[70] + 62 u[71] + 26 u[72] + 91 u[73]
   + 12 u[74] + 81 u[75] + 15 u[76] + 35 u[77] + 29 u[78] + 71 u[79]
   + 58 u[80] + 30 u[81] + 51 u[82] + 70 u[83] + 38 u[84] + 50 u[85]
   + 40 u[86] + 88 u[87] + 26 u[88] + 71 u[89] + 5 u[90] + 53 u[91]
   + 81 u[92] + 36 u[93] + 68 u[94] + 77 u[95] + 25 u[96] + 53 u[97]
   + 96 u[98] + 76 u[99] + 17 u[100] + 24 u[101] + 10 u[102] + 48 u[103]
   + 25 u[104] + 18 u[105] + 3 u[106] + 59 u[107] + 63 u[108] + 17 u[109]
   + 95 u[110] + 7 u[111] + 25 u[112] + 45 u[113] + 9 u[114] + 83 u[115]
   + 51 u[116] + 5 u[117] + 77 u[118] + 13 u[119] + 56 u[120] + 41 u[121]
   + 52 u[122] + 19 u[123] + 29 u[124] + 3 u[125] + 68 u[126] + 32 u[127]
   + 67 u[128] + 43 u[129] + 66 u[130] + 41 u[131] + 59 u[132] + 16 u[133]
   + 53 u[134] + 74 u[135] + 69 u[136] + 27 u[137] + 46 u[138] + 44 u[139]
   + 75 u[140] + 9 u[141] + 67 u[142] + 19 u[143] + 21 u[144] + 34 u[145]
   + 42 u[146] + 55 u[147] + 25 u[148] + 90 u[149] <= 2210
 mccormick1[0]: - u[0] + r[0] <= 0
 mccormick1[1]: - u[1] + r[1] <= 0
 mccormick1[2]: - u[2] + r[2] <= 0
 mccormick1[3]: - u[3] + r[3] <= 0
 mccormick1[4]: - u[4] + r[4] <= 0
 mccormick1[5]: - u[5] + r[5] <= 0
 mccormick1[6]: - u[6] + r[6] <= 0
 mccormick1[7]: - u[7] + r[7] <= 0
 mccormick1[8]: - u[8] + r[8] <= 0
 mccormick1[9]: - u[9] + r[9] <= 0
 mccormick1[10]: - u[10] + r[10] <= 0
 mccormick1[11]: - u[11] + r[11] <= 0
 mccormick1[12]: - u[12] + r[12] <= 0
 mccormick1[13]: - u[13] + r[13] <= 0
 mccormick1[14]: - u[14] + r[14] <= 0
 mccormick1[15]: - u[15] + r[15] <= 0
 mccormick1[16]: - u[16] + r[16] <= 0
 mccormick1[17]: - u[17] + r[17] <= 0
 mccormick1[18]: - u[18] + r[18] <= 0
 mccormick1[19]: - u[19] + r[19] <= 0
 mccormick1[20]: - u[20] + r[20] <= 0
 mccormick1[21]: - u[21] + r[21] <= 0
 mccormick1[22]: - u[22] + r[22] <= 0
 mccormick1[23]: - u[23] + r[23] <= 0
 mccormick1[24]: - u[24] + r[24] <= 0
 mccormick1[25]: - u[25] + r[25] <= 0
 mccormick1[26]: - u[26] + r[26] <= 0
 mccormick1[27]: - u[27] + r[27] <= 0
 mccormick1[28]: - u[28] + r[28] <= 0
 mccormick1[29]: - u[29] + r[29] <= 0
 mccormick1[30]: - u[30] + r[30] <= 0
 mccormick1[31]: - u[31] + r[31] <= 0
 mccormick1[32]: - u[32] + r[32] <= 0
 mccormick1[33]: - u[33] + r[33] <= 0
 mccormick1[34]: - u[34] + r[34] <= 0
 mccormick1[35]: - u[35] + r[35] <= 0
 mccormick1[36]: - u[36] + r[36] <= 0
 mccormick1[37]: - u[37] + r[37] <= 0
 mccormick1[38]: - u[38] + r[38] <= 0
 mccormick1[39]: - u[39] + r[39] <= 0
 mccormick1[40]: - u[40] + r[40] <= 0
 mccormick1[41]: - u[41] + r[41] <= 0
 mccormick1[42]: - u[42] + r[42] <= 0
 mccormick1[43]: - u[43] + r[43] <= 0
 mccormick1[44]: - u[44] + r[44] <= 0
 mccormick1[45]: - u[45] + r[45] <= 0
 mccormick1[46]: - u[46] + r[46] <= 0
 mccormick1[47]: - u[47] + r[47] <= 0
 mccormick1[48]: - u[48] + r[48] <= 0
 mccormick1[49]: - u[49] + r[49] <= 0
 mccormick1[50]: - u[50] + r[50] <= 0
 mccormick1[51]: - u[51] + r[51] <= 0
 mccormick1[52]: - u[52] + r[52] <= 0
 mccormick1[53]: - u[53] + r[53] <= 0
 mccormick1[54]: - u[54] + r[54] <= 0
 mccormick1[55]: - u[55] + r[55] <= 0
 mccormick1[56]: - u[56] + r[56] <= 0
 mccormick1[57]: - u[57] + r[57] <= 0
 mccormick1[58]: - u[58] + r[58] <= 0
 mccormick1[59]: - u[59] + r[59] <= 0
 mccormick1[60]: - u[60] + r[60] <= 0
 mccormick1[61]: - u[61] + r[61] <= 0
 mccormick1[62]: - u[62] + r[62] <= 0
 mccormick1[63]: - u[63] + r[63] <= 0
 mccormick1[64]: - u[64] + r[64] <= 0
 mccormick1[65]: - u[65] + r[65] <= 0
 mccormick1[66]: - u[66] + r[66] <= 0
 mccormick1[67]: - u[67] + r[67] <= 0
 mccormick1[68]: - u[68] + r[68] <= 0
 mccormick1[69]: - u[69] + r[69] <= 0
 mccormick1[70]: - u[70] + r[70] <= 0
 mccormick1[71]: - u[71] + r[71] <= 0
 mccormick1[72]: - u[72] + r[72] <= 0
 mccormick1[73]: - u[73] + r[73] <= 0
 mccormick1[74]: - u[74] + r[74] <= 0
 mccormick1[75]: - u[75] + r[75] <= 0
 mccormick1[76]: - u[76] + r[76] <= 0
 mccormick1[77]: - u[77] + r[77] <= 0
 mccormick1[78]: - u[78] + r[78] <= 0
 mccormick1[79]: - u[79] + r[79] <= 0
 mccormick1[80]: - u[80] + r[80] <= 0
 mccormick1[81]: - u[81] + r[81] <= 0
 mccormick1[82]: - u[82] + r[82] <= 0
 mccormick1[83]: - u[83] + r[83] <= 0
 mccormick1[84]: - u[84] + r[84] <= 0
 mccormick1[85]: - u[85] + r[85] <= 0
 mccormick1[86]: - u[86] + r[86] <= 0
 mccormick1[87]: - u[87] + r[87] <= 0
 mccormick1[88]: - u[88] + r[88] <= 0
 mccormick1[89]: - u[89] + r[89] <= 0
 mccormick1[90]: - u[90] + r[90] <= 0
 mccormick1[91]: - u[91] + r[91] <= 0
 mccormick1[92]: - u[92] + r[92] <= 0
 mccormick1[93]: - u[93] + r[93] <= 0
 mccormick1[94]: - u[94] + r[94] <= 0
 mccormick1[95]: - u[95] + r[95] <= 0
 mccormick1[96]: - u[96] + r[96] <= 0
 mccormick1[97]: - u[97] + r[97] <= 0
 mccormick1[98]: - u[98] + r[98] <= 0
 mccormick1[99]: - u[99] + r[99] <= 0
 mccormick1[100]: - u[100] + r[100] <= 0
 mccormick1[101]: - u[101] + r[101] <= 0
 mccormick1[102]: - u[102] + r[102] <= 0
 mccormick1[103]: - u[103] + r[103] <= 0
 mccormick1[104]: - u[104] + r[104] <= 0
 mccormick1[105]: - u[105] + r[105] <= 0
 mccormick1[106]: - u[106] + r[106] <= 0
 mccormick1[107]: - u[107] + r[107] <= 0
 mccormick1[108]: - u[108] + r[108] <= 0
 mccormick1[109]: - u[109] + r[109] <= 0
 mccormick1[110]: - u[110] + r[110] <= 0
 mccormick1[111]: - u[111] + r[111] <= 0
 mccormick1[112]: - u[112] + r[112] <= 0
 mccormick1[113]: - u[113] + r[113] <= 0
 mccormick1[114]: - u[114] + r[114] <= 0
 mccormick1[115]: - u[115] + r[115] <= 0
 mccormick1[116]: - u[116] + r[116] <= 0
 mccormick1[117]: - u[117] + r[117] <= 0
 mccormick1[118]: - u[118] + r[118] <= 0
 mccormick1[119]: - u[119] + r[119] <= 0
 mccormick1[120]: - u[120] + r[120] <= 0
 mccormick1[121]: - u[121] + r[121] <= 0
 mccormick1[122]: - u[122] + r[122] <= 0
 mccormick1[123]: - u[123] + r[123] <= 0
 mccormick1[124]: - u[124] + r[124] <= 0
 mccormick1[125]: - u[125] + r[125] <= 0
 mccormick1[126]: - u[126] + r[126] <= 0
 mccormick1[127]: - u[127] + r[127] <= 0
 mccormick1[128]: - u[128] + r[128] <= 0
 mccormick1[129]: - u[129] + r[129] <= 0
 mccormick1[130]: - u[130] + r[130] <= 0
 mccormick1[131]: - u[131] + r[131] <= 0
 mccormick1[132]: - u[132] + r[132] <= 0
 mccormick1[133]: - u[133] + r[133] <= 0
 mccormick1[134]: - u[134] + r[134] <= 0
 mccormick1[135]: - u[135] + r[135] <= 0
 mccormick1[136]: - u[136] + r[136] <= 0
 mccormick1[137]: - u[137] + r[137] <= 0
 mccormick1[138]: - u[138] + r[138] <= 0
 mccormick1[139]: - u[139] + r[139] <= 0
 mccormick1[140]: - u[140] + r[140] <= 0
 mccormick1[141]: - u[141] + r[141] <= 0
 mccormick1[142]: - u[142] + r[142] <= 0
 mccormick1[143]: - u[143] + r[143] <= 0
 mccormick1[144]: - u[144] + r[144] <= 0
 mccormick1[145]: - u[145] + r[145] <= 0
 mccormick1[146]: - u[146] + r[146] <= 0
 mccormick1[147]: - u[147] + r[147] <= 0
 mccormick1[148]: - u[148] + r[148] <= 0
 mccormick1[149]: - u[149] + r[149] <= 0
 mccormick2[0]: - x[0] + r[0] <= 0
 mccormick2[1]: - x[1] + r[1] <= 0
 mccormick2[2]: - x[2] + r[2] <= 0
 mccormick2[3]: - x[3] + r[3] <= 0
 mccormick2[4]: - x[4] + r[4] <= 0
 mccormick2[5]: - x[5] + r[5] <= 0
 mccormick2[6]: - x[6] + r[6] <= 0
 mccormick2[7]: - x[7] + r[7] <= 0
 mccormick2[8]: - x[8] + r[8] <= 0
 mccormick2[9]: - x[9] + r[9] <= 0
 mccormick2[10]: - x[10] + r[10] <= 0
 mccormick2[11]: - x[11] + r[11] <= 0
 mccormick2[12]: - x[12] + r[12] <= 0
 mccormick2[13]: - x[13] + r[13] <= 0
 mccormick2[14]: - x[14] + r[14] <= 0
 mccormick2[15]: - x[15] + r[15] <= 0
 mccormick2[16]: - x[16] + r[16] <= 0
 mccormick2[17]: - x[17] + r[17] <= 0
 mccormick2[18]: - x[18] + r[18] <= 0
 mccormick2[19]: - x[19] + r[19] <= 0
 mccormick2[20]: - x[20] + r[20] <= 0
 mccormick2[21]: - x[21] + r[21] <= 0
 mccormick2[22]: - x[22] + r[22] <= 0
 mccormick2[23]: - x[23] + r[23] <= 0
 mccormick2[24]: - x[24] + r[24] <= 0
 mccormick2[25]: - x[25] + r[25] <= 0
 mccormick2[26]: - x[26] + r[26] <= 0
 mccormick2[27]: - x[27] + r[27] <= 0
 mccormick2[28]: - x[28] + r[28] <= 0
 mccormick2[29]: - x[29] + r[29] <= 0
 mccormick2[30]: - x[30] + r[30] <= 0
 mccormick2[31]: - x[31] + r[31] <= 0
 mccormick2[32]: - x[32] + r[32] <= 0
 mccormick2[33]: - x[33] + r[33] <= 0
 mccormick2[34]: - x[34] + r[34] <= 0
 mccormick2[35]: - x[35] + r[35] <= 0
 mccormick2[36]: - x[36] + r[36] <= 0
 mccormick2[37]: - x[37] + r[37] <= 0
 mccormick2[38]: - x[38] + r[38] <= 0
 mccormick2[39]: - x[39] + r[39] <= 0
 mccormick2[40]: - x[40] + r[40] <= 0
 mccormick2[41]: - x[41] + r[41] <= 0
 mccormick2[42]: - x[42] + r[42] <= 0
 mccormick2[43]: - x[43] + r[43] <= 0
 mccormick2[44]: - x[44] + r[44] <= 0
 mccormick2[45]: - x[45] + r[45] <= 0
 mccormick2[46]: - x[46] + r[46] <= 0
 mccormick2[47]: - x[47] + r[47] <= 0
 mccormick2[48]: - x[48] + r[48] <= 0
 mccormick2[49]: - x[49] + r[49] <= 0
 mccormick2[50]: - x[50] + r[50] <= 0
 mccormick2[51]: - x[51] + r[51] <= 0
 mccormick2[52]: - x[52] + r[52] <= 0
 mccormick2[53]: - x[53] + r[53] <= 0
 mccormick2[54]: - x[54] + r[54] <= 0
 mccormick2[55]: - x[55] + r[55] <= 0
 mccormick2[56]: - x[56] + r[56] <= 0
 mccormick2[57]: - x[57] + r[57] <= 0
 mccormick2[58]: - x[58] + r[58] <= 0
 mccormick2[59]: - x[59] + r[59] <= 0
 mccormick2[60]: - x[60] + r[60] <= 0
 mccormick2[61]: - x[61] + r[61] <= 0
 mccormick2[62]: - x[62] + r[62] <= 0
 mccormick2[63]: - x[63] + r[63] <= 0
 mccormick2[64]: - x[64] + r[64] <= 0
 mccormick2[65]: - x[65] + r[65] <= 0
 mccormick2[66]: - x[66] + r[66] <= 0
 mccormick2[67]: - x[67] + r[67] <= 0
 mccormick2[68]: - x[68] + r[68] <= 0
 mccormick2[69]: - x[69] + r[69] <= 0
 mccormick2[70]: - x[70] + r[70] <= 0
 mccormick2[71]: - x[71] + r[71] <= 0
 mccormick2[72]: - x[72] + r[72] <= 0
 mccormick2[73]: - x[73] + r[73] <= 0
 mccormick2[74]: - x[74] + r[74] <= 0
 mccormick2[75]: - x[75] + r[75] <= 0
 mccormick2[76]: - x[76] + r[76] <= 0
 mccormick2[77]: - x[77] + r[77] <= 0
 mccormick2[78]: - x[78] + r[78] <= 0
 mccormick2[79]: - x[79] + r[79] <= 0
 mccormick2[80]: - x[80] + r[80] <= 0
 mccormick2[81]: - x[81] + r[81] <= 0
 mccormick2[82]: - x[82] + r[82] <= 0
 mccormick2[83]: - x[83] + r[83] <= 0
 mccormick2[84]: - x[84] + r[84] <= 0
 mccormick2[85]: - x[85] + r[85] <= 0
 mccormick2[86]: - x[86] + r[86] <= 0
 mccormick2[87]: - x[87] + r[87] <= 0
 mccormick2[88]: - x[88] + r[88] <= 0
 mccormick2[89]: - x[89] + r[89] <= 0
 mccormick2[90]: - x[90] + r[90] <= 0
 mccormick2[91]: - x[91] + r[91] <= 0
 mccormick2[92]: - x[92] + r[92] <= 0
 mccormick2[93]: - x[93] + r[93] <= 0
 mccormick2[94]: - x[94] + r[94] <= 0
 mccormick2[95]: - x[95] + r[95] <= 0
 mccormick2[96]: - x[96] + r[96] <= 0
 mccormick2[97]: - x[97] + r[97] <= 0
 mccormick2[98]: - x[98] + r[98] <= 0
 mccormick2[99]: - x[99] + r[99] <= 0
 mccormick2[100]: - x[100] + r[100] <= 0
 mccormick2[101]: - x[101] + r[101] <= 0
 mccormick2[102]: - x[102] + r[102] <= 0
 mccormick2[103]: - x[103] + r[103] <= 0
 mccormick2[104]: - x[104] + r[104] <= 0
 mccormick2[105]: - x[105] + r[105] <= 0
 mccormick2[106]: - x[106] + r[106] <= 0
 mccormick2[107]: - x[107] + r[107] <= 0
 mccormick2[108]: - x[108] + r[108] <= 0
 mccormick2[109]: - x[109] + r[109] <= 0
 mccormick2[110]: - x[110] + r[110] <= 0
 mccormick2[111]: - x[111] + r[111] <= 0
 mccormick2[112]: - x[112] + r[112] <= 0
 mccormick2[113]: - x[113] + r[113] <= 0
 mccormick2[114]: - x[114] + r[114] <= 0
 mccormick2[115]: - x[115] + r[115] <= 0
 mccormick2[116]: - x[116] + r[116] <= 0
 mccormick2[117]: - x[117] + r[117] <= 0
 mccormick2[118]: - x[118] + r[118] <= 0
 mccormick2[119]: - x[119] + r[119] <= 0
 mccormick2[120]: - x[120] + r[120] <= 0
 mccormick2[121]: - x[121] + r[121] <= 0
 mccormick2[122]: - x[122] + r[122] <= 0
 mccormick2[123]: - x[123] + r[123] <= 0
 mccormick2[124]: - x[124] + r[124] <= 0
 mccormick2[125]: - x[125] + r[125] <= 0
 mccormick2[126]: - x[126] + r[126] <= 0
 mccormick2[127]: - x[127] + r[127] <= 0
 mccormick2[128]: - x[128] + r[128] <= 0
 mccormick2[129]: - x[129] + r[129] <= 0
 mccormick2[130]: - x[130] + r[130] <= 0
 mccormick2[131]: - x[131] + r[131] <= 0
 mccormick2[132]: - x[132] + r[132] <= 0
 mccormick2[133]: - x[133] + r[133] <= 0
 mccormick2[134]: - x[134] + r[134] <= 0
 mccormick2[135]: - x[135] + r[135] <= 0
 mccormick2[136]: - x[136] + r[136] <= 0
 mccormick2[137]: - x[137] + r[137] <= 0
 mccormick2[138]: - x[138] + r[138] <= 0
 mccormick2[139]: - x[139] + r[139] <= 0
 mccormick2[140]: - x[140] + r[140] <= 0
 mccormick2[141]: - x[141] + r[141] <= 0
 mccormick2[142]: - x[142] + r[142] <= 0
 mccormick2[143]: - x[143] + r[143] <= 0
 mccormick2[144]: - x[144] + r[144] <= 0
 mccormick2[145]: - x[145] + r[145] <= 0
 mccormick2[146]: - x[146] + r[146] <= 0
 mccormick2[147]: - x[147] + r[147] <= 0
 mccormick2[148]: - x[148] + r[148] <= 0
 mccormick2[149]: - x[149] + r[149] <= 0
 mccormick3[0]: x[0] + u[0] - r[0] <= 1
 mccormick3[1]: x[1] + u[1] - r[1] <= 1
 mccormick3[2]: x[2] + u[2] - r[2] <= 1
 mccormick3[3]: x[3] + u[3] - r[3] <= 1
 mccormick3[4]: x[4] + u[4] - r[4] <= 1
 mccormick3[5]: x[5] + u[5] - r[5] <= 1
 mccormick3[6]: x[6] + u[6] - r[6] <= 1
 mccormick3[7]: x[7] + u[7] - r[7] <= 1
 mccormick3[8]: x[8] + u[8] - r[8] <= 1
 mccormick3[9]: x[9] + u[9] - r[9] <= 1
 mccormick3[10]: x[10] + u[10] - r[10] <= 1
 mccormick3[11]: x[11] + u[11] - r[11] <= 1
 mccormick3[12]: x[12] + u[12] - r[12] <= 1
 mccormick3[13]: x[13] + u[13] - r[13] <= 1
 mccormick3[14]: x[14] + u[14] - r[14] <= 1
 mccormick3[15]: x[15] + u[15] - r[15] <= 1
 mccormick3[16]: x[16] + u[16] - r[16] <= 1
 mccormick3[17]: x[17] + u[17] - r[17] <= 1
 mccormick3[18]: x[18] + u[18] - r[18] <= 1
 mccormick3[19]: x[19] + u[19] - r[19] <= 1
 mccormick3[20]: x[20] + u[20] - r[20] <= 1
 mccormick3[21]: x[21] + u[21] - r[21] <= 1
 mccormick3[22]: x[22] + u[22] - r[22] <= 1
 mccormick3[23]: x[23] + u[23] - r[23] <= 1
 mccormick3[24]: x[24] + u[24] - r[24] <= 1
 mccormick3[25]: x[25] + u[25] - r[25] <= 1
 mccormick3[26]: x[26] + u[26] - r[26] <= 1
 mccormick3[27]: x[27] + u[27] - r[27] <= 1
 mccormick3[28]: x[28] + u[28] - r[28] <= 1
 mccormick3[29]: x[29] + u[29] - r[29] <= 1
 mccormick3[30]: x[30] + u[30] - r[30] <= 1
 mccormick3[31]: x[31] + u[31] - r[31] <= 1
 mccormick3[32]: x[32] + u[32] - r[32] <= 1
 mccormick3[33]: x[33] + u[33] - r[33] <= 1
 mccormick3[34]: x[34] + u[34] - r[34] <= 1
 mccormick3[35]: x[35] + u[35] - r[35] <= 1
 mccormick3[36]: x[36] + u[36] - r[36] <= 1
 mccormick3[37]: x[37] + u[37] - r[37] <= 1
 mccormick3[38]: x[38] + u[38] - r[38] <= 1
 mccormick3[39]: x[39] + u[39] - r[39] <= 1
 mccormick3[40]: x[40] + u[40] - r[40] <= 1
 mccormick3[41]: x[41] + u[41] - r[41] <= 1
 mccormick3[42]: x[42] + u[42] - r[42] <= 1
 mccormick3[43]: x[43] + u[43] - r[43] <= 1
 mccormick3[44]: x[44] + u[44] - r[44] <= 1
 mccormick3[45]: x[45] + u[45] - r[45] <= 1
 mccormick3[46]: x[46] + u[46] - r[46] <= 1
 mccormick3[47]: x[47] + u[47] - r[47] <= 1
 mccormick3[48]: x[48] + u[48] - r[48] <= 1
 mccormick3[49]: x[49] + u[49] - r[49] <= 1
 mccormick3[50]: x[50] + u[50] - r[50] <= 1
 mccormick3[51]: x[51] + u[51] - r[51] <= 1
 mccormick3[52]: x[52] + u[52] - r[52] <= 1
 mccormick3[53]: x[53] + u[53] - r[53] <= 1
 mccormick3[54]: x[54] + u[54] - r[54] <= 1
 mccormick3[55]: x[55] + u[55] - r[55] <= 1
 mccormick3[56]: x[56] + u[56] - r[56] <= 1
 mccormick3[57]: x[57] + u[57] - r[57] <= 1
 mccormick3[58]: x[58] + u[58] - r[58] <= 1
 mccormick3[59]: x[59] + u[59] - r[59] <= 1
 mccormick3[60]: x[60] + u[60] - r[60] <= 1
 mccormick3[61]: x[61] + u[61] - r[61] <= 1
 mccormick3[62]: x[62] + u[62] - r[62] <= 1
 mccormick3[63]: x[63] + u[63] - r[63] <= 1
 mccormick3[64]: x[64] + u[64] - r[64] <= 1
 mccormick3[65]: x[65] + u[65] - r[65] <= 1
 mccormick3[66]: x[66] + u[66] - r[66] <= 1
 mccormick3[67]: x[67] + u[67] - r[67] <= 1
 mccormick3[68]: x[68] + u[68] - r[68] <= 1
 mccormick3[69]: x[69] + u[69] - r[69] <= 1
 mccormick3[70]: x[70] + u[70] - r[70] <= 1
 mccormick3[71]: x[71] + u[71] - r[71] <= 1
 mccormick3[72]: x[72] + u[72] - r[72] <= 1
 mccormick3[73]: x[73] + u[73] - r[73] <= 1
 mccormick3[74]: x[74] + u[74] - r[74] <= 1
 mccormick3[75]: x[75] + u[75] - r[75] <= 1
 mccormick3[76]: x[76] + u[76] - r[76] <= 1
 mccormick3[77]: x[77] + u[77] - r[77] <= 1
 mccormick3[78]: x[78] + u[78] - r[78] <= 1
 mccormick3[79]: x[79] + u[79] - r[79] <= 1
 mccormick3[80]: x[80] + u[80] - r[80] <= 1
 mccormick3[81]: x[81] + u[81] - r[81] <= 1
 mccormick3[82]: x[82] + u[82] - r[82] <= 1
 mccormick3[83]: x[83] + u[83] - r[83] <= 1
 mccormick3[84]: x[84] + u[84] - r[84] <= 1
 mccormick3[85]: x[85] + u[85] - r[85] <= 1
 mccormick3[86]: x[86] + u[86] - r[86] <= 1
 mccormick3[87]: x[87] + u[87] - r[87] <= 1
 mccormick3[88]: x[88] + u[88] - r[88] <= 1
 mccormick3[89]: x[89] + u[89] - r[89] <= 1
 mccormick3[90]: x[90] + u[90] - r[90] <= 1
 mccormick3[91]: x[91] + u[91] - r[91] <= 1
 mccormick3[92]: x[92] + u[92] - r[92] <= 1
 mccormick3[93]: x[93] + u[93] - r[93] <= 1
 mccormick3[94]: x[94] + u[94] - r[94] <= 1
 mccormick3[95]: x[95] + u[95] - r[95] <= 1
 mccormick3[96]: x[96] + u[96] - r[96] <= 1
 mccormick3[97]: x[97] + u[97] - r[97] <= 1
 mccormick3[98]: x[98] + u[98] - r[98] <= 1
 mccormick3[99]: x[99] + u[99] - r[99] <= 1
 mccormick3[100]: x[100] + u[100] - r[100] <= 1
 mccormick3[101]: x[101] + u[101] - r[101] <= 1
 mccormick3[102]: x[102] + u[102] - r[102] <= 1
 mccormick3[103]: x[103] + u[103] - r[103] <= 1
 mccormick3[104]: x[104] + u[104] - r[104] <= 1
 mccormick3[105]: x[105] + u[105] - r[105] <= 1
 mccormick3[106]: x[106] + u[106] - r[106] <= 1
 mccormick3[107]: x[107] + u[107] - r[107] <= 1
 mccormick3[108]: x[108] + u[108] - r[108] <= 1
 mccormick3[109]: x[109] + u[109] - r[109] <= 1
 mccormick3[110]: x[110] + u[110] - r[110] <= 1
 mccormick3[111]: x[111] + u[111] - r[111] <= 1
 mccormick3[112]: x[112] + u[112] - r[112] <= 1
 mccormick3[113]: x[113] + u[113] - r[113] <= 1
 mccormick3[114]: x[114] + u[114] - r[114] <= 1
 mccormick3[115]: x[115] + u[115] - r[115] <= 1
 mccormick3[116]: x[116] + u[116] - r[116] <= 1
 mccormick3[117]: x[117] + u[117] - r[117] <= 1
 mccormick3[118]: x[118] + u[118] - r[118] <= 1
 mccormick3[119]: x[119] + u[119] - r[119] <= 1
 mccormick3[120]: x[120] + u[120] - r[120] <= 1
 mccormick3[121]: x[121] + u[121] - r[121] <= 1
 mccormick3[122]: x[122] + u[122] - r[122] <= 1
 mccormick3[123]: x[123] + u[123] - r[123] <= 1
 mccormick3[124]: x[124] + u[124] - r[124] <= 1
 mccormick3[125]: x[125] + u[125] - r[125] <= 1
 mccormick3[126]: x[126] + u[126] - r[126] <= 1
 mccormick3[127]: x[127] + u[127] - r[127] <= 1
 mccormick3[128]: x[128] + u[128] - r[128] <= 1
 mccormick3[129]: x[129] + u[129] - r[129] <= 1
 mccormick3[130]: x[130] + u[130] - r[130] <= 1
 mccormick3[131]: x[131] + u[131] - r[131] <= 1
 mccormick3[132]: x[132] + u[132] - r[132] <= 1
 mccormick3[133]: x[133] + u[133] - r[133] <= 1
 mccormick3[134]: x[134] + u[134] - r[134] <= 1
 mccormick3[135]: x[135] + u[135] - r[135] <= 1
 mccormick3[136]: x[136] + u[136] - r[136] <= 1
 mccormick3[137]: x[137] + u[137] - r[137] <= 1
 mccormick3[138]: x[138] + u[138] - r[138] <= 1
 mccormick3[139]: x[139] + u[139] - r[139] <= 1
 mccormick3[140]: x[140] + u[140] - r[140] <= 1
 mccormick3[141]: x[141] + u[141] - r[141] <= 1
 mccormick3[142]: x[142] + u[142] - r[142] <= 1
 mccormick3[143]: x[143] + u[143] - r[143] <= 1
 mccormick3[144]: x[144] + u[144] - r[144] <= 1
 mccormick3[145]: x[145] + u[145] - r[145] <= 1
 mccormick3[146]: x[146] + u[146] - r[146] <= 1
 mccormick3[147]: x[147] + u[147] - r[147] <= 1
 mccormick3[148]: x[148] + u[148] - r[148] <= 1
 mccormick3[149]: x[149] + u[149] - r[149] <= 1
Bounds
Binaries
 x[0] x[1] x[2] x[3] x[4] x[5] x[6] x[7] x[8] x[9] x[10] x[11] x[12] x[13]
 x[14] x[15] x[16] x[17] x[18] x[19] x[20] x[21] x[22] x[23] x[24] x[25]
 x[26] x[27] x[28] x[29] x[30] x[31] x[32] x[33] x[34] x[35] x[36] x[37]
 x[38] x[39] x[40] x[41] x[42] x[43] x[44] x[45] x[46] x[47] x[48] x[49]
 x[50] x[51] x[52] x[53] x[54] x[55] x[56] x[57] x[58] x[59] x[60] x[61]
 x[62] x[63] x[64] x[65] x[66] x[67] x[68] x[69] x[70] x[71] x[72] x[73]
 x[74] x[75] x[76] x[77] x[78] x[79] x[80] x[81] x[82] x[83] x[84] x[85]
 x[86] x[87] x[88] x[89] x[90] x[91] x[92] x[93] x[94] x[95] x[96] x[97]
 x[98] x[99] x[100] x[101] x[102] x[103] x[104] x[105] x[106] x[107] x[108]
 x[109] x[110] x[111] x[112] x[113] x[114] x[115] x[116] x[117] x[118]
 x[119] x[120] x[121] x[122] x[123] x[124] x[125] x[126] x[127] x[128]
 x[129] x[130] x[131] x[132] x[133] x[134] x[135] x[136] x[137] x[138]
 x[139] x[140] x[141] x[142] x[143] x[144] x[145] x[146] x[147] x[148]
 x[149] u[0] u[1] u[2] u[3] u[4] u[5] u[6] u[7] u[8] u[9] u[10] u[11] u[12]
 u[13] u[14] u[15] u[16] u[17] u[18] u[19] u[20] u[21] u[22] u[23] u[24]
 u[25] u[26] u[27] u[28] u[29] u[30] u[31] u[32] u[33] u[34] u[35] u[36]
 u[37] u[38] u[39] u[40] u[41] u[42] u[43] u[44] u[45] u[46] u[47] u[48]
 u[49] u[50] u[51] u[52] u[53] u[54] u[55] u[56] u[57] u[58] u[59] u[60]
 u[61] u[62] u[63] u[64] u[65] u[66] u[67] u[68] u[69] u[70] u[71] u[72]
 u[73] u[74] u[75] u[76] u[77] u[78] u[79] u[80] u[81] u[82] u[83] u[84]
 u[85] u[86] u[87] u[88] u[89] u[90] u[91] u[92] u[93] u[94] u[95] u[96]
 u[97] u[98] u[99] u[100] u[101] u[102] u[103] u[104] u[105] u[106] u[107]
 u[108] u[109] u[110] u[111] u[112] u[113] u[114] u[115] u[116] u[117]
 u[118] u[119] u[120] u[121] u[122] u[123] u[124] u[125] u[126] u[127]
 u[128] u[129] u[130] u[131] u[132] u[133] u[134] u[135] u[136] u[137]
 u[138] u[139] u[140] u[141] u[142] u[143] u[144] u[145] u[146] u[147]
 u[148] u[149] r[0] r[1] r[2] r[3] r[4] r[5] r[6] r[7] r[8] r[9] r[10]
 r[11] r[12] r[13] r[14] r[15] r[16] r[17] r[18] r[19] r[20] r[21] r[22]
 r[23] r[24] r[25] r[26] r[27] r[28] r[29] r[30] r[31] r[32] r[33] r[34]
 r[35] r[36] r[37] r[38] r[39] r[40] r[41] r[42] r[43] r[44] r[45] r[46]
 r[47] r[48] r[49] r[50] r[51] r[52] r[53] r[54] r[55] r[56] r[57] r[58]
 r[59] r[60] r[61] r[62] r[63] r[64] r[65] r[66] r[67] r[68] r[69] r[70]
 r[71] r[72] r[73] r[74] r[75] r[76] r[77] r[78] r[79] r[80] r[81] r[82]
 r[83] r[84] r[85] r[86] r[87] r[88] r[89] r[90] r[91] r[92] r[93] r[94]
 r[95] r[96] r[97] r[98] r[99] r[100] r[101] r[102] r[103] r[104] r[105]
 r[106] r[107] r[108] r[109] r[110] r[111] r[112] r[113] r[114] r[115]
 r[116] r[117] r[118] r[119] r[120] r[121] r[122] r[123] r[124] r[125]
 r[126] r[127] r[128] r[129] r[130] r[131] r[132] r[133] r[134] r[135]
 r[136] r[137] r[138] r[139] r[140] r[141] r[142] r[143] r[144] r[145]
 r[146] r[147] r[148] r[149]
End
