instances/knapsack/discrete/knapsack_150_4.kp
42183
150
660

48 4.8 25
5 0.5 73
91 9.1 99
68 6.8 39
81 8.1 20
54 5.4 48
58 5.8 44
24 2.4 66
18 1.8 97
19 1.9 85
100 10.0 6
96 9.6 94
53 5.3 6
69 6.9 57
37 3.7 70
21 2.1 19
14 1.4 77
97 9.7 69
74 7.4 57
3 0.3 100
2 0.2 12
24 2.4 94
49 4.9 59
91 9.1 11
33 3.3 72
53 5.3 37
71 7.1 95
12 1.2 46
42 4.2 1
36 3.6 51
46 4.6 8
44 4.4 47
84 8.4 67
6 0.6 90
21 2.1 26
58 5.8 32
1 0.1 76
21 2.1 82
9 0.9 33
95 9.5 50
88 8.8 79
46 4.6 64
23 2.3 20
46 4.6 34
24 2.4 89
19 1.9 34
78 7.8 79
70 7.0 79
60 6.0 63
89 8.9 44
71 7.1 34
49 4.9 73
26 2.6 38
5 0.5 84
61 6.1 51
72 7.2 61
30 3.0 25
3 0.3 51
81 8.1 27
3 0.3 78
69 6.9 99
47 4.7 65
52 5.2 16
99 9.9 72
92 9.2 77
77 7.7 60
41 4.1 76
91 9.1 20
5 0.5 55
54 5.4 24
42 4.2 20
18 1.8 50
35 3.5 52
76 7.6 36
64 6.4 21
89 8.9 53
43 4.3 85
12 1.2 64
81 8.1 63
23 2.3 90
50 5.0 22
34 3.4 73
55 5.5 52
46 4.6 57
54 5.4 72
82 8.2 71
88 8.8 77
33 3.3 98
67 6.7 27
68 6.8 97
37 3.7 69
29 2.9 72
21 2.1 20
64 6.4 71
61 6.1 39
38 3.8 25
54 5.4 16
53 5.3 59
5 0.5 27
25 2.5 99
26 2.6 99
17 1.7 4
31 3.1 29
21 2.1 68
94 9.4 42
47 4.7 42
88 8.8 61
79 7.9 95
87 8.7 1
6 0.6 79
55 5.5 88
12 1.2 33
82 8.2 16
10 1.0 50
78 7.8 29
19 1.9 96
76 7.6 34
70 7.0 76
82 8.2 25
21 2.1 14
28 2.8 80
77 7.7 65
8 0.8 13
27 2.7 2
26 2.6 66
79 7.9 95
4 0.4 31
44 4.4 69
31 3.1 94
12 1.2 3
18 1.8 41
50 5.0 2
99 9.9 31
65 6.5 93
21 2.1 40
11 1.1 6
38 3.8 43
83 8.3 80
2 0.2 10
1 0.1 56
28 2.8 73
89 8.9 99
32 3.2 8
12 1.2 66
62 6.2 51
19 1.9 53
83 8.3 8
16 1.6 74
13 1.3 3
11 1.1 69

2210
666

[0.8989245429430146 0.2670129588121559 2.5680167475840285 4.134782372901378 3.113688413127179 3.926758957087501 1.2685555756844058 2.4848749809827755 3.3231894818792354 1.5538284691719573 0.9608003007179066 2.1705213787270847 0.34025698186731446 3.1137246965581356 0.8518584840719864 2.0189810749397905 1.3586677872321091 3.399552144024371 2.6743520723919727 1.8742005999023816 1.9345788256795566 3.5962135892715783 1.693793847481957 0.9092762873269994 3.9833500881373523 4.059194493762698 3.251563466932256 0.7916645753359578 2.2840591361984517 0.2511338508625228 0.8336498893803632 0.13889189234161695 3.683873279295338 3.7929670560107285 4.103688525089331 0.3608854334606311 4.300844627364839 0.6586705414829309 3.551383320032576 2.8998418679292395 0.7395113080531391 0.7904037613049624 1.3047727989757618 1.630193867173823 2.470661023949346 1.3649101211202905 2.6419895430242177 4.329098818868335 2.4503532656306226 3.1768946217535885 1.0189682418044332 2.2391621065885556 0.7757692196479555 2.2724926327629174 1.661068077026602 2.1244546125364927 1.5394502594833743 0.024353578597263198 1.0072852120414373 2.7884759995048576 1.6209741558973652 1.252449433870589 0.6358178486929772 1.2481249604070965 3.8971303806209026 2.213391204211819 2.9392497481066084 2.2499275563570302 4.088509736634578 0.12267816566385746 0.8339788175925884 1.8763467434663283 4.033373707110462 1.9598337570870081 3.4459692240686084 1.1538089338645257 2.2315381127118767 2.518622839644902 3.52417438296263 1.9038124418931666 3.845949098658192 1.4344269086173698 4.095316469319915 2.7573422207244533 1.9413929823321319 0.8394053917376533 1.5863447661368364 3.955025910239636 0.5537022396288503 1.5100074936464498 4.258341190966482 4.427138458430112 3.2039968866851303 1.084413054316656 1.8032546393081301 1.0670909801991073 1.8650367333798135 0.723405678877831 3.7122021709791806 3.905227488656134 2.1399103547935123 2.0915437813358535 2.150657208378034 2.3871107192819894 3.0104004397914483 1.7746977655924958 0.8079189686066519 0.725485198661626 3.9056210997315275 2.881565894923576 3.4197401131810015 3.229878254173161 1.8508238808584925 3.673484134165237 0.9360178360982153 3.4490981150987112 3.6248252317620757 0.9138719044167999 3.8666401342418544 3.061682282013089 0.47200972338916525 3.925824463165455 4.144471553628134 1.9364025153305806 0.06225344864828164 3.5272156672256556 0.1299546012844002 0.16750725719181006 1.5636404410717841 1.0939992258079636 3.1605512437578427 4.121647140983606 2.7834328286070034 4.300021448439504 1.1605421787703905 1.5257724797596561 3.3651770326506902 2.010212613018993 1.891379779962312 4.423929812533178 2.7999404907864367 0.5365225084213443 1.9776737787612098 2.463183870320182 1.3621427567135747 2.308281617457748 0.08289754634177406 3.8787742970416654 3.677012391265441 0.4419189979935122]

[48 44 42 95 36 58 17 68 41 50 12 47 40 16 5 25 45 96 69 50 97 28 40 87 41 72 54 96 42 35 58 36 44 49 48 41 72 53 16 27 99 66 22 50 95 15 86 98 31 52 27 8 49 72 17 80 17 35 8 74 57 95 64 27 96 4 53 3 44 30 30 62 26 91 12 81 15 35 29 71 58 30 51 70 38 50 40 88 26 71 5 53 81 36 68 77 25 53 96 76 17 24 10 48 25 18 3 59 63 17 95 7 25 45 9 83 51 5 77 13 56 41 52 19 29 3 68 32 67 43 66 41 59 16 53 74 69 27 46 44 75 9 67 19 21 34 42 55 25 90]
